16
0 1 5
0 2 10
0 3 18
0 4 5
0 5 3
0 6 5
0 7 5
0 8 19
0 9 17
0 10 3
0 11 7
0 12 4
0 13 1
0 14 16
0 15 6
1 0 20
1 2 9
1 3 17
1 4 13
1 5 20
1 6 14
1 7 18
1 8 17
1 9 20
1 10 7
1 11 17
1 12 17
1 13 9
1 14 20
1 15 1
2 0 7
2 1 7
2 3 2
2 4 14
2 5 13
2 6 7
2 7 16
2 8 5
2 9 19
2 10 14
2 11 17
2 12 13
2 13 13
2 14 1
2 15 4
3 0 16
3 1 19
3 2 12
3 4 11
3 5 18
3 6 15
3 7 4
3 8 20
3 9 18
3 10 11
3 11 13
3 12 20
3 13 6
3 14 13
3 15 13
4 0 13
4 1 6
4 2 11
4 3 15
4 5 8
4 6 20
4 7 11
4 8 18
4 9 8
4 10 2
4 11 2
4 12 3
4 13 4
4 14 4
4 15 20
5 0 1
5 1 17
5 2 3
5 3 9
5 4 13
5 6 5
5 7 13
5 8 2
5 9 5
5 10 11
5 11 5
5 12 3
5 13 11
5 14 5
5 15 2
6 0 15
6 1 16
6 2 1
6 3 1
6 4 8
6 5 12
6 7 9
6 8 16
6 9 12
6 10 11
6 11 7
6 12 16
6 13 14
6 14 3
6 15 9
7 0 3
7 1 15
7 2 2
7 3 8
7 4 14
7 5 13
7 6 6
7 8 6
7 9 12
7 10 13
7 11 18
7 12 6
7 13 5
7 14 17
7 15 13
8 0 6
8 1 4
8 2 12
8 3 13
8 4 1
8 5 15
8 6 9
8 7 3
8 9 2
8 10 6
8 11 4
8 12 19
8 13 4
8 14 4
8 15 6
9 0 18
9 1 12
9 2 4
9 3 7
9 4 5
9 5 17
9 6 12
9 7 10
9 8 4
9 10 8
9 11 6
9 12 8
9 13 2
9 14 15
9 15 20
10 0 9
10 1 18
10 2 1
10 3 2
10 4 1
10 5 1
10 6 18
10 7 10
10 8 12
10 9 9
10 11 4
10 12 20
10 13 18
10 14 18
10 15 13
11 0 1
11 1 4
11 2 11
11 3 20
11 4 12
11 5 17
11 6 4
11 7 15
11 8 8
11 9 9
11 10 3
11 12 1
11 13 4
11 14 4
11 15 8
12 0 17
12 1 14
12 2 4
12 3 2
12 4 13
12 5 8
12 6 19
12 7 18
12 8 17
12 9 3
12 10 15
12 11 10
12 13 2
12 14 6
12 15 17
13 0 6
13 1 8
13 2 11
13 3 9
13 4 10
13 5 16
13 6 5
13 7 16
13 8 14
13 9 3
13 10 18
13 11 4
13 12 1
13 14 19
13 15 7
14 0 9
14 1 14
14 2 7
14 3 19
14 4 9
14 5 12
14 6 8
14 7 10
14 8 3
14 9 15
14 10 5
14 11 16
14 12 5
14 13 17
14 15 19
15 0 15
15 1 9
15 2 6
15 3 9
15 4 4
15 5 15
15 6 20
15 7 3
15 8 10
15 9 2
15 10 9
15 11 1
15 12 2
15 13 15
15 14 18
